c random clauses
p cnf 10 16
-10 -9 -8 -4 2 3 6 7 0
-10 -8 -7 -6 -5 -3 -2 -1 0
-10 -8 -7 -5 -2 1 4 6 0
-10 -8 -6 -4 1 2 3 5 0
-10 -6 -5 -4 1 2 3 7 0
-10 -6 -5 -4 1 7 8 9 0
-9 -8 -7 -6 -4 -2 1 10 0
-9 -7 -4 -2 -1 6 8 10 0
-9 -5 -4 -3 1 2 7 10 0
-7 -5 1 2 4 6 8 10 0
-7 -4 1 2 3 5 8 10 0
-6 -5 -3 1 2 7 9 10 0
-6 -2 -1 5 7 8 9 10 0
-5 -3 2 4 6 7 8 10 0
-5 -1 2 3 6 8 9 10 0
1 2 5 6 7 8 9 10 0
